NAME          blend                                                     ( MIN)
ROWS
 N  OBJ
 E  R1
 E  R2
 E  R3
 E  R4
 E  R5
 E  R6
 E  R7
 E  R8
 E  R9
 E  R10
 E  R11
 E  R12
 E  R13
 E  R14
 E  R15
 E  R16
 E  R17
 E  R18
 E  R19
 E  R20
 E  R21
 E  R22
 E  R23
 E  R24
 E  R25
 E  R26
 E  R27
 E  R28
 E  R29
 E  R30
 E  R31
 E  R32
 E  R33
 E  R34
 E  R35
 E  R36
 E  R37
 E  R38
 E  R39
 E  R40
 E  R41
 E  R42
 E  R43
 L  R44
 L  R45
 L  R46
 L  R47
 L  R48
 L  R49
 L  R50
 L  R51
 L  R52
 L  R53
 L  R54
 L  R55
 L  R56
 L  R57
 L  R58
 L  R59
 L  R60
 L  R61
 L  R62
 L  R63
 L  R64
 L  R65
 L  R66
 L  R67
 L  R68
 L  R69
 L  R70
 L  R71
 L  R72
 L  R73
 L  R74
COLUMNS
    X1        R2        -0.537000
    X1        R3        -0.131000
    X1        R4        -0.115500
    X1        R5        -0.036500
    X1        R6        -0.143000
    X1        R7        -0.037000
    X1        R40       0.003000
    X1        R41       0.058700
    X1        R42       0.150000
    X1        R43       0.302000
    X1        R67       1.000000
    X1        OBJ       3.200000
    X2        R1        -0.293100
    X2        R3        -0.117000
    X2        R4        -0.064900
    X2        R5        -0.123300
    X2        R6        -0.221700
    X2        R8        -0.180000
    X2        R39       0.004200
    X2        R40       0.003000
    X2        R41       0.105300
    X2        R42       0.185000
    X2        R43       0.384000
    X2        R50       -0.008620
    X2        R51       -0.008620
    X2        R56       -0.010100
    X2        R57       -0.010100
    X2        R68       1.000000
    X2        OBJ       2.870000
    X3        R2        1.000000
    X3        R9        -0.027700
    X3        R10       -0.056300
    X3        R11       -0.199000
    X3        R12       -0.687300
    X3        R13       -0.017000
    X3        R40       0.013030
    X3        R41       0.050600
    X3        R42       0.209000
    X3        R43       0.495000
    X3        R65       1.000000
    X4        R1        1.000000
    X4        R9        -0.011200
    X4        R10       -0.037800
    X4        R11       -0.150200
    X4        R12       -0.795300
    X4        R13       -0.009900
    X4        R40       0.013030
    X4        R41       0.044800
    X4        R42       0.185000
    X4        R43       0.721000
    X4        R65       1.000000
    X5        R9        -0.175000
    X5        R10       -0.270000
    X5        R11       -0.028000
    X5        R13       -0.455000
    X5        R21       1.000000
    X5        R40       0.013030
    X5        R41       0.050600
    X5        R42       0.209000
    X5        R43       0.495000
    X6        R9        -0.271000
    X6        R10       -0.328500
    X6        R11       -0.025500
    X6        R13       -0.265600
    X6        R18       1.000000
    X6        R40       0.013030
    X6        R41       0.050600
    X6        R42       0.209000
    X6        R43       0.495000
    X7        R9        -0.283600
    X7        R10       -0.328500
    X7        R11       -0.024100
    X7        R13       -0.250200
    X7        R17       1.000000
    X7        R40       0.013030
    X7        R41       0.050600
    X7        R42       0.209000
    X7        R43       0.495000
    X8        R12       1.000000
    X8        R14       -1.000000
    X8        R39       0.032700
    X8        R41       0.094000
    X8        R42       0.045000
    X8        R43       0.793000
    X8        OBJ       0.004400
    X9        R15       -1.000000
    X9        R22       1.000000
    X10       R16       -1.000000
    X10       R22       1.000000
    X11       R14       1.000000
    X11       R15       -1.000000
    X12       R14       1.000000
    X12       R16       -1.000000
    X13       R15       1.000000
    X13       R17       -0.058800
    X13       R19       -0.814500
    X13       R23       -0.009100
    X13       R39       -0.823900
    X13       R40       0.008100
    X13       R41       -0.211200
    X13       R42       0.387000
    X13       R43       1.030000
    X13       R69       1.300000
    X13       OBJ       0.070000
    X14       R16       1.000000
    X14       R18       -0.040400
    X14       R20       -0.856400
    X14       R23       -0.006900
    X14       R39       -0.768900
    X14       R40       0.006300
    X14       R41       -0.156000
    X14       R42       0.297000
    X14       R43       0.792000
    X14       R69       1.000000
    X14       OBJ       0.037800
    X15       R5        1.000000
    X15       R21       -0.332100
    X15       R22       -0.587500
    X15       R23       -0.362000
    X15       R39       2.300000
    X15       R41       -0.204900
    X15       R42       0.826000
    X15       R43       14.610000
    X15       R65       1.000000
    X15       R70       1.000000
    X15       OBJ       0.155000
    X16       R6        1.000000
    X16       R21       -0.332100
    X16       R22       -0.587500
    X16       R23       -0.362000
    X16       R39       2.300000
    X16       R41       -0.204900
    X16       R42       0.826000
    X16       R43       14.610000
    X16       R66       1.000000
    X16       R70       1.000000
    X16       OBJ       0.155000
    X17       R4        1.000000
    X17       R21       -0.241400
    X17       R22       -0.662700
    X17       R23       -0.293000
    X17       R39       2.300000
    X17       R41       -0.153100
    X17       R42       0.826000
    X17       R43       14.610000
    X17       R65       1.000000
    X17       R70       1.000000
    X17       OBJ       0.155000
    X18       R21       -0.241400
    X18       R22       -0.662700
    X18       R23       -0.293000
    X18       R28       1.000000
    X18       R39       2.300000
    X18       R41       -0.153100
    X18       R42       0.826000
    X18       R43       14.610000
    X18       R70       1.000000
    X18       OBJ       0.155000
    X19       R5        1.000000
    X19       R10       -0.018500
    X19       R13       -0.056800
    X19       R24       -0.080600
    X19       R25       -0.065800
    X19       R26       -0.032800
    X19       R27       -0.493400
    X19       R28       -0.292200
    X19       R29       -0.009600
    X19       R40       -0.065400
    X19       R41       -0.253500
    X19       R42       0.632000
    X19       R43       0.680700
    X19       R65       1.000000
    X19       R71       1.000000
    X19       OBJ       0.052800
    X20       R6        1.000000
    X20       R10       -0.018500
    X20       R13       -0.056800
    X20       R24       -0.080600
    X20       R25       -0.065800
    X20       R26       -0.032800
    X20       R27       -0.493400
    X20       R28       -0.292200
    X20       R29       -0.009600
    X20       R40       -0.065400
    X20       R41       -0.253500
    X20       R42       0.632000
    X20       R43       0.680700
    X20       R66       1.000000
    X20       R71       1.000000
    X20       OBJ       0.052800
    X21       R4        1.000000
    X21       R10       -0.018400
    X21       R13       -0.056400
    X21       R24       -0.078000
    X21       R25       -0.065500
    X21       R26       -0.030300
    X21       R27       -0.475000
    X21       R28       -0.305000
    X21       R40       -0.065400
    X21       R41       -0.270300
    X21       R42       0.632000
    X21       R43       0.680700
    X21       R65       1.000000
    X21       R71       1.000000
    X21       OBJ       0.052800
    X22       R3        1.000000
    X22       R10       -0.018400
    X22       R13       -0.056400
    X22       R24       -0.078000
    X22       R25       -0.065500
    X22       R26       -0.030300
    X22       R27       -0.475000
    X22       R28       -0.305000
    X22       R40       -0.065400
    X22       R41       -0.270300
    X22       R42       0.632000
    X22       R43       0.680700
    X22       R65       1.000000
    X22       R71       1.000000
    X22       OBJ       0.052800
    X23       R13       0.760000
    X23       R25       0.571400
    X23       R30       -1.000000
    X23       R40       0.186900
    X23       R41       0.279600
    X23       R42       2.241000
    X23       R43       2.766000
    X23       R72       1.000000
    X23       OBJ       0.128000
    X24       R9        -0.057100
    X24       R10       -0.011400
    X24       R13       0.657100
    X24       R24       0.571400
    X24       R31       -1.000000
    X24       R40       0.172400
    X24       R41       0.257900
    X24       R42       2.067000
    X24       R43       2.552000
    X24       R72       1.000000
    X24       OBJ       0.118000
    X25       R9        -1.000000
    X25       R25       1.000000
    X26       R10       -1.000000
    X26       R24       1.000000
    X27       R10       -1.000000
    X27       R13       1.000000
    X28       R11       1.000000
    X28       R32       -1.000000
    X28       R44       -7.950000
    X28       R45       -8.700000
    X28       R46       -3.000000
    X28       R47       14.000000
    X28       R48       1.000000
    X28       R49       -1.000000
    X29       R23       1.000000
    X29       R32       -1.000000
    X29       R44       -8.840000
    X29       R45       -9.450000
    X29       R46       -3.000000
    X29       R47       12.000000
    X29       R48       1.000000
    X29       R49       -1.000000
    X30       R19       1.000000
    X30       R32       -1.000000
    X30       R44       -9.430000
    X30       R45       -9.570000
    X30       R46       -3.000000
    X30       R47       3.500000
    X30       R48       0.233000
    X30       R49       -0.358000
    X31       R20       1.000000
    X31       R32       -1.000000
    X31       R44       -9.030000
    X31       R45       -9.320000
    X31       R46       -3.000000
    X31       R47       3.500000
    X31       R48       0.205000
    X31       R49       -0.333000
    X32       R27       1.000000
    X32       R32       -1.000000
    X32       R44       -9.230000
    X32       R45       -9.220000
    X32       R46       -3.000000
    X32       R47       6.000000
    X32       R48       0.381000
    X32       R49       -0.509000
    X33       R30       1.000000
    X33       R32       -1.000000
    X33       R44       -9.400000
    X33       R45       -9.850000
    X33       R46       -3.000000
    X33       R47       2.500000
    X33       R48       0.390000
    X33       R49       -0.770000
    X34       R31       1.000000
    X34       R32       -1.000000
    X34       R44       -9.740000
    X34       R45       -10.100000
    X34       R46       -3.000000
    X34       R47       3.300000
    X34       R48       0.233000
    X34       R49       -0.580000
    X35       R10       1.000000
    X35       R32       -1.000000
    X35       R44       -9.740000
    X35       R45       -9.900000
    X35       R46       -3.000000
    X35       R47       66.000000
    X35       R48       1.000000
    X35       R49       -1.000000
    X36       R44       -0.493000
    X36       R45       -0.165000
    X36       R46       1.000000
    X36       OBJ       0.092400
    X37       R32       1.000000
    X37       R44       10.030000
    X37       R45       10.030000
    X37       R47       -9.500000
    X37       R48       -0.500000
    X37       R49       0.500000
    X37       R73       0.640000
    X37       R74       0.350000
    X37       OBJ       -5.360000
    X38       R11       1.000000
    X38       R33       -1.000000
    X38       R50       -7.980000
    X38       R51       -8.580000
    X38       R52       -3.000000
    X38       R53       14.000000
    X38       R54       1.000000
    X38       R55       -1.000000
    X39       R23       1.000000
    X39       R33       -1.000000
    X39       R50       -8.870000
    X39       R51       -9.330000
    X39       R52       -3.000000
    X39       R53       12.000000
    X39       R54       1.000000
    X39       R55       -1.000000
    X40       R19       1.000000
    X40       R33       -1.000000
    X40       R50       -9.460000
    X40       R51       -9.450000
    X40       R52       -3.000000
    X40       R53       3.500000
    X40       R54       0.233000
    X40       R55       -0.358000
    X41       R20       1.000000
    X41       R33       -1.000000
    X41       R50       -9.060000
    X41       R51       -9.200000
    X41       R52       -3.000000
    X41       R53       3.500000
    X41       R54       0.205000
    X41       R55       -0.333000
    X42       R27       1.000000
    X42       R33       -1.000000
    X42       R50       -9.260000
    X42       R51       -9.130000
    X42       R52       -3.000000
    X42       R53       6.000000
    X42       R54       0.318000
    X42       R55       -0.509000
    X43       R10       1.000000
    X43       R33       -1.000000
    X43       R50       -9.770000
    X43       R51       -9.780000
    X43       R52       -3.000000
    X43       R53       66.000000
    X43       R54       1.000000
    X43       R55       -1.000000
    X44       R50       -0.435000
    X44       R51       -0.208000
    X44       R52       1.000000
    X44       OBJ       0.092400
    X45       R33       1.000000
    X45       R50       9.650000
    X45       R51       9.650000
    X45       R53       -9.500000
    X45       R54       -0.500000
    X45       R55       0.500000
    X45       R73       -0.360000
    X45       R74       0.350000
    X45       OBJ       -5.080000
    X46       R11       1.000000
    X46       R36       -1.000000
    X46       R56       -7.990000
    X46       R57       -8.590000
    X46       R58       -3.000000
    X46       R59       14.000000
    X46       R60       1.000000
    X46       R61       -1.000000
    X47       R23       1.000000
    X47       R36       -1.000000
    X47       R56       -8.880000
    X47       R57       -9.340000
    X47       R58       -3.000000
    X47       R59       12.000000
    X47       R60       1.000000
    X47       R61       -1.000000
    X48       R19       1.000000
    X48       R36       -1.000000
    X48       R56       -9.470000
    X48       R57       -9.460000
    X48       R58       -3.000000
    X48       R59       3.500000
    X48       R60       0.233000
    X48       R61       -0.358000
    X49       R20       1.000000
    X49       R36       -1.000000
    X49       R56       -9.070000
    X49       R57       -9.210000
    X49       R58       -3.000000
    X49       R59       3.500000
    X49       R60       0.205000
    X49       R61       -0.333000
    X50       R27       1.000000
    X50       R36       -1.000000
    X50       R56       -9.270000
    X50       R57       -9.140000
    X50       R58       -3.000000
    X50       R59       6.000000
    X50       R60       0.318000
    X50       R61       -0.509000
    X51       R10       1.000000
    X51       R36       -1.000000
    X51       R56       -9.780000
    X51       R57       -9.790000
    X51       R58       -3.000000
    X51       R59       66.000000
    X51       R60       1.000000
    X51       R61       -1.000000
    X52       R56       -0.426000
    X52       R57       -0.204000
    X52       R58       1.000000
    X52       OBJ       0.092400
    X53       R36       1.000000
    X53       R56       9.050000
    X53       R57       9.050000
    X53       R59       -9.500000
    X53       R60       -0.500000
    X53       R61       0.500000
    X53       R73       -0.360000
    X53       R74       -0.650000
    X53       OBJ       -4.510000
    X54       R9        -1.000000
    X54       R26       1.000000
    X55       R9        1.000000
    X55       R37       -1.000000
    X56       R10       1.000000
    X56       R37       -1.000000
    X57       R37       1.000000
    X57       OBJ       -2.750000
    X58       R11       1.000000
    X58       R38       -1.000000
    X58       R63       -14.000000
    X58       R64       14.000000
    X59       R12       1.000000
    X59       R38       -1.000000
    X59       R63       -0.800000
    X59       R64       0.800000
    X60       R38       1.000000
    X60       R63       2.000000
    X60       R64       -3.000000
    X60       OBJ       -4.200000
    X61       R4        1.000000
    X61       R34       -1.000000
    X62       R3        1.000000
    X62       R34       -1.000000
    X63       R34       1.000000
    X63       R65       1.000000
    X63       OBJ       -3.600000
    X64       R7        1.000000
    X64       R35       -1.000000
    X64       R62       10.100000
    X65       R8        1.000000
    X65       R35       -1.000000
    X65       R62       12.630000
    X66       R6        1.000000
    X66       R35       -1.000000
    X66       R62       8.050000
    X66       R66       1.000000
    X67       R5        1.000000
    X67       R35       -1.000000
    X67       R62       6.900000
    X67       R65       1.000000
    X68       R29       1.000000
    X68       R35       -1.000000
    X68       R62       8.050000
    X69       R28       1.000000
    X69       R35       -1.000000
    X69       R62       4.400000
    X70       R35       1.000000
    X70       R62       -10.100000
    X70       OBJ       -2.000000
    X71       R39       1.000000
    X71       R41       -0.325000
    X72       R13       1.000000
    X72       R41       -4.153000
    X73       R10       1.000000
    X73       R41       -4.316000
    X74       R9        1.000000
    X74       R41       -3.814000
    X75       R25       1.000000
    X75       R41       -3.808000
    X76       R24       1.000000
    X76       R41       -4.440000
    X77       R40       -1.000000
    X77       R41       1.420000
    X77       OBJ       0.040000
    X78       R40       1.000000
    X79       R10       -0.500000
    X79       R13       -0.500000
    X79       OBJ       3.000000
    X80       R41       -1.000000
    X80       OBJ       0.400000
    X81       R41       1.000000
    X82       R42       -1.000000
    X82       OBJ       0.013200
    X83       R43       -1.000000
    X83       OBJ       0.010000
RHS
    RHS1      R1        0.000000
    RHS1      R2        0.000000
    RHS1      R3        0.000000
    RHS1      R4        0.000000
    RHS1      R5        0.000000
    RHS1      R6        0.000000
    RHS1      R7        0.000000
    RHS1      R8        0.000000
    RHS1      R9        0.000000
    RHS1      R10       0.000000
    RHS1      R11       0.000000
    RHS1      R12       0.000000
    RHS1      R13       0.000000
    RHS1      R14       0.000000
    RHS1      R15       0.000000
    RHS1      R16       0.000000
    RHS1      R17       0.000000
    RHS1      R18       0.000000
    RHS1      R19       0.000000
    RHS1      R20       0.000000
    RHS1      R21       0.000000
    RHS1      R22       0.000000
    RHS1      R23       0.000000
    RHS1      R24       0.000000
    RHS1      R25       0.000000
    RHS1      R26       0.000000
    RHS1      R27       0.000000
    RHS1      R28       0.000000
    RHS1      R29       0.000000
    RHS1      R30       0.000000
    RHS1      R31       0.000000
    RHS1      R32       0.000000
    RHS1      R33       0.000000
    RHS1      R34       0.000000
    RHS1      R35       0.000000
    RHS1      R36       0.000000
    RHS1      R37       0.000000
    RHS1      R38       0.000000
    RHS1      R39       0.000000
    RHS1      R40       0.000000
    RHS1      R41       0.000000
    RHS1      R42       0.000000
    RHS1      R43       0.000000
    RHS1      R44       0.000000
    RHS1      R45       0.000000
    RHS1      R46       0.000000
    RHS1      R47       0.000000
    RHS1      R48       0.000000
    RHS1      R49       0.000000
    RHS1      R50       0.000000
    RHS1      R51       0.000000
    RHS1      R52       0.000000
    RHS1      R53       0.000000
    RHS1      R54       0.000000
    RHS1      R55       0.000000
    RHS1      R56       0.000000
    RHS1      R57       0.000000
    RHS1      R58       0.000000
    RHS1      R59       0.000000
    RHS1      R60       0.000000
    RHS1      R61       0.000000
    RHS1      R62       0.000000
    RHS1      R63       0.000000
    RHS1      R64       0.000000
    RHS1      R65       23.260000
    RHS1      R66       5.250000
    RHS1      R67       26.320000
    RHS1      R68       21.050000
    RHS1      R69       13.450000
    RHS1      R70       2.580000
    RHS1      R71       10.000000
    RHS1      R72       10.000000
    RHS1      R73       0.000000
    RHS1      R74       0.000000
ENDATA